(set-logic QF_S)
(declare-fun T_95 () Bool)
(declare-fun T_96 () Bool)
(declare-fun T_SELECT_11 () Bool)
(declare-fun I0_256 () Int)
(declare-fun PCTEMP_LHS_15 () Int)
(declare-fun T0_256 () String)
(declare-fun T1_256 () String)
(declare-fun T2_256 () String)
(declare-fun T3_256 () String)
(declare-fun T4_256 () String)
(declare-fun T5_256 () String)
(declare-fun T_93 () String)
(assert (= T_93 (str.++ T0_256 T1_256)))
(assert (= T1_256 (str.++ T2_256 T3_256)))
(assert (= T2_256 (str.++ T4_256 T5_256)))
(assert (not (str.in.re T4_256 (str.to.re "__utmx=169413169"))))
(assert (= T5_256 "__utmx=169413169"))
(assert T_96)
(assert (= T_96 (not T_95)))
(assert (= T_95 (< (- 1) PCTEMP_LHS_15)))
(assert (= PCTEMP_LHS_15 (+ I0_256 0)))
(assert (= T_SELECT_11 (not (= PCTEMP_LHS_15 (- 1)))))
(assert (= 0 (str.len T0_256))) ; len 0
(assert (= I0_256 (str.len T4_256))) ; len 1
(assert T_SELECT_11)
(check-sat)
